Instance name:    bar-n200-5
Authors:          PDPTW Solver
Date:             2025-11-21
Reference:        LNS with SA/RTR
Solution
Route 1 : 44 49 149 144 11 111 36 136 7 107 84 184 87 187 63 30 130 46 163 75 175 93 193 146 20 120 27 15 115 127 54 154 68 168 61 161 67 167 26 126 28 128 45 4 104 145
Route 2 : 17 42 142 117 40 95 195 85 185 80 180 23 123 21 140 97 19 119 71 171 29 129 51 197 38 13 138 113 121 151 77 73 173 177 62 162 35 135 48 148 60 160
Route 3 : 47 74 174 147 33 24 124 64 164 3 92 192 50 103 53 153 150 90 190 52 58 158 133 152 81 14 1 101 37 114 137 31 131 181 39 139 5 105 18 118 88 70 170 188
Route 4 : 86 57 186 157 6 106 8 10 110 108 89 9 109 189 100 12 112 65 165 200 59 159 43 76 176 143 66 166 96 196 79 179
Route 5 : 41 141 22 34 82 182 134 94 194 122 78 178 56 156 72 25 83 125 172 55 183 91 191 98 2 102 198 16 116 69 169 155 32 99 199 132
